0 0 1 0 1 1 1 1 1 0 0 
0 35 35 19 27 53 69 22 17 80 60 
35 0 53 25 16 77 59 23 78 46 62 
35 53 0 30 80 33 47 21 59 36 31 
19 25 30 0 45 60 79 38 23 70 28 
27 16 80 45 0 54 16 66 26 67 65 
53 77 33 60 54 0 79 65 18 35 78 
69 59 47 79 16 79 0 35 43 53 47 
22 23 21 38 66 65 35 0 75 64 30 
17 78 59 23 26 18 43 75 0 39 46 
80 46 36 70 67 35 53 64 39 0 48 
60 62 31 28 65 78 47 30 46 48 0 
2 50
1B 9P 6P 10B 3P 8P 2B 5P 7P 11B 4B = 276